50 127
17 22 2
12 33 2
11 16 2
11 18 2
19 21 2
12 34 2
15 21 2
15 33 2
10 17 2
9 33 4
15 32 2
9 17 2
10 14 2
14 34 2
13 15 2
12 13 2
16 29 2
13 32 2
12 31 2
9 32 2
9 13 2
11 14 2
18 22 2
17 21 2
12 32 2
11 33 8
10 33 16
13 22 1
11 17 1
14 18 1
12 27 1
8 11 2
9 18 2
8 19 2
6 19 2
15 18 2
13 31 1
11 30 1
12 18 2
12 14 2
15 31 2
10 34 2
14 33 2
14 32 8
10 12 2
12 30 2
7 15 4
7 24 2
19 33 1
19 32 6
50 100 
50 100 
50 100 
50 100 
50 100 
50 100 
50 100 
50 100 
50 100 
50 100 
50 100 
50 100 
50 100 
50 100 
50 100 
50 100 
50 100 
50 100 
50 100 
50 100 
50 100 
50 100 
50 100 
50 100 
50 100 
50 100 
50 100 
50 100 
50 100 
50 100 
50 100 
50 100 
50 100 
50 100 
50 100 
50 100 
50 100 
50 100 
50 100 
50 100 
50 100 
50 100 
50 100 
50 100 
50 100 
50 100 
50 100 
50 100 
50 100 
50 100 
50 100 
50 100 
50 100 
50 100 
50 100 
50 100 
50 100 
50 100 
50 100 
50 100 
50 100 
50 100 
50 100 
50 100 
50 100 
50 100 
50 100 
50 100 
50 100 
50 100 
50 100 
50 100 
50 100 
50 100 
50 100 
50 100 
50 100 
50 100 
50 100 
50 100 
50 100 
50 100 
50 100 
50 100 
50 100 
50 100 
50 100 
50 100 
50 100 
50 100 
50 100 
50 100 
50 100 
50 100 
50 100 
50 100 
50 100 
50 100 
50 100 
50 100 
50 100 
50 100 
50 100 
50 100 
50 100 
50 100 
50 100 
50 100 
50 100 
50 100 
50 100 
50 100 
50 100 
50 100 
50 100 
50 100 
50 100 
50 100 
50 100 
50 100 
50 100 
50 100 
50 100 
50 100 
50 100 
50 100 
50 100 
